NAME          COPTPROB
OBJSENSE
  MIN
ROWS
 N  __OBJ___
 L  C0      
 L  C2      
 L  C3      
 L  C4      
 L  C5      
 L  C7      
 L  C9      
 L  C10     
 L  C12     
 L  C15     
 L  C25     
 L  C26     
 L  C29     
 L  C30     
 L  C34     
 L  C36     
 L  C37     
 L  C40     
 L  C43     
 L  C44     
 L  C47     
 L  C50     
 L  C52     
 L  C57     
 L  C60     
 L  C61     
 L  C62     
 L  C63     
 L  C64     
 L  C65     
 L  C67     
 L  C69     
 L  C71     
 L  C73     
 L  C74     
 L  C75     
 L  C76     
 L  C77     
 L  C80     
 L  C81     
 L  C86     
 L  C89     
 L  C93     
 L  C94     
 L  C95     
 L  C96     
 L  C99     
 L  C102    
 L  C108    
 L  C109    
 L  C113    
 L  C115    
 L  C116    
 L  C119    
 L  C120    
 L  C121    
 L  C122    
 L  C124    
 L  C125    
 L  C126    
 L  C128    
 L  C130    
 L  C131    
 L  C132    
 L  C133    
 L  C134    
 L  C138    
 L  C139    
 L  C140    
 L  C144    
 L  C145    
 L  C148    
 L  C149    
 L  C151    
 L  C153    
 L  C156    
 L  C161    
 L  C163    
 L  C164    
 L  C165    
 L  C166    
 L  C167    
 L  C170    
 L  C174    
 L  C184    
 L  C185    
 L  C190    
 L  C192    
 L  C193    
 L  C194    
 L  C197    
 L  C198    
 L  C203    
 L  C204    
 L  C205    
 L  C206    
 L  C207    
 L  C211    
 L  C213    
 L  C214    
 L  C216    
 L  C217    
 L  C219    
 L  C220    
 L  C222    
 L  C223    
 L  C230    
 L  C234    
 L  C235    
 L  C237    
 L  C240    
 L  C242    
 L  C244    
 L  C247    
 L  C250    
 L  C254    
 L  C255    
 L  C260    
 L  C263    
 L  C265    
 L  C266    
 L  C267    
 L  C270    
 L  C271    
 L  C272    
 L  C274    
 L  C275    
 L  C276    
 L  C277    
 L  C279    
 L  C282    
 L  C283    
 L  C287    
 L  C291    
 L  C292    
 L  C294    
 L  C295    
 L  C298    
 L  C300    
 L  C302    
 L  C304    
 L  C305    
 L  C306    
 L  C308    
 L  C310    
 L  C311    
 L  C312    
 L  C314    
 L  C317    
 L  C318    
 L  C323    
 L  C324    
 L  C325    
 L  C329    
 L  C332    
 L  C336    
 L  C337    
 L  C338    
 L  C340    
 L  C341    
 L  C343    
 L  C344    
 L  C345    
 L  C346    
 L  C347    
 L  C348    
 L  C349    
 L  C350    
 L  C351    
 L  C352    
 L  C354    
 L  C356    
 L  C357    
 L  C360    
 L  C361    
 L  C363    
 L  C364    
 L  C366    
 L  C369    
 L  C371    
 L  C377    
 L  C382    
 L  C383    
 L  C387    
 L  C390    
 L  C393    
 L  C394    
 L  C395    
 L  C397    
 L  C399    
COLUMNS
    MARKER    'MARKER'                 'INTORG'
    x4        __OBJ___  724
    x4        C9        -1
    x4        C60       -1
    x4        C75       -1
    x4        C192      -1
    x4        C311      -1
    x4        C383      -1
    x7        __OBJ___  882
    x7        C64       -1
    x7        C81       -1
    x7        C165      -1
    x7        C193      -1
    x9        __OBJ___  542
    x9        C161      -1
    x9        C174      -1
    x9        C308      -1
    x11       __OBJ___  976
    x11       C30       -1
    x11       C139      -1
    x11       C235      -1
    x11       C340      -1
    x12       __OBJ___  930
    x12       C37       -1
    x12       C63       -1
    x12       C234      -1
    x16       __OBJ___  398
    x16       C133      -1
    x16       C167      -1
    x16       C250      -1
    x16       C364      -1
    x17       __OBJ___  62
    x17       C184      -1
    x17       C220      -1
    x18       __OBJ___  905
    x18       C26       -1
    x18       C254      -1
    x18       C266      -1
    x24       __OBJ___  845
    x24       C25       -1
    x24       C47       -1
    x24       C74       -1
    x24       C94       -1
    x24       C108      -1
    x24       C223      -1
    x24       C237      -1
    x26       __OBJ___  946
    x26       C3        -1
    x26       C197      -1
    x26       C291      -1
    x26       C347      -1
    x26       C387      -1
    x28       __OBJ___  204
    x28       C140      -1
    x29       __OBJ___  60
    x29       C73       -1
    x29       C102      -1
    x29       C329      -1
    x29       C336      -1
    x29       C349      -1
    x30       __OBJ___  476
    x30       C121      -1
    x30       C164      -1
    x30       C255      -1
    x30       C397      -1
    x33       __OBJ___  263
    x33       C138      -1
    x33       C156      -1
    x33       C343      -1
    x35       __OBJ___  382
    x35       C149      -1
    x35       C194      -1
    x35       C277      -1
    x35       C363      -1
    x37       __OBJ___  527
    x37       C120      -1
    x37       C134      -1
    x37       C351      -1
    x39       __OBJ___  761
    x39       C52       -1
    x39       C67       -1
    x39       C96       -1
    x39       C310      -1
    x41       __OBJ___  75
    x41       C109      -1
    x41       C185      -1
    x41       C230      -1
    x41       C295      -1
    x43       __OBJ___  751
    x43       C43       -1
    x43       C145      -1
    x43       C271      -1
    x43       C344      -1
    x43       C356      -1
    x43       C377      -1
    x44       __OBJ___  491
    x44       C0        -1
    x44       C166      -1
    x44       C323      -1
    x45       __OBJ___  346
    x45       C44       -1
    x45       C214      -1
    x45       C260      -1
    x45       C357      -1
    x51       __OBJ___  706
    x51       C71       -1
    x51       C263      -1
    x52       __OBJ___  819
    x52       C2        -1
    x52       C131      -1
    x52       C244      -1
    x52       C345      -1
    x55       __OBJ___  228
    x55       C80       -1
    x55       C222      -1
    x55       C282      -1
    x55       C354      -1
    x55       C371      -1
    x56       __OBJ___  221
    x56       C283      -1
    x56       C324      -1
    x57       __OBJ___  83
    x57       C62       -1
    x57       C144      -1
    x57       C148      -1
    x59       __OBJ___  675
    x59       C115      -1
    x59       C128      -1
    x59       C275      -1
    x60       __OBJ___  849
    x60       C77       -1
    x60       C317      -1
    x67       __OBJ___  532
    x67       C5        -1
    x67       C211      -1
    x67       C302      -1
    x67       C393      -1
    x69       __OBJ___  805
    x69       C36       -1
    x69       C206      -1
    x69       C360      -1
    x71       __OBJ___  26
    x71       C89       -1
    x71       C318      -1
    x72       __OBJ___  703
    x72       C116      -1
    x72       C399      -1
    x74       __OBJ___  561
    x74       C99       -1
    x74       C369      -1
    x75       __OBJ___  119
    x75       C151      -1
    x75       C395      -1
    x78       __OBJ___  128
    x78       C170      -1
    x78       C341      -1
    x79       __OBJ___  560
    x79       C7        -1
    x79       C122      -1
    x79       C332      -1
    x80       __OBJ___  87
    x80       C61       -1
    x80       C65       -1
    x80       C113      -1
    x80       C265      -1
    x82       __OBJ___  297
    x82       C119      -1
    x82       C298      -1
    x83       __OBJ___  639
    x83       C29       -1
    x83       C93       -1
    x86       __OBJ___  729
    x86       C12       -1
    x86       C198      -1
    x86       C314      -1
    x91       __OBJ___  240
    x91       C76       -1
    x91       C163      -1
    x91       C270      -1
    x91       C276      -1
    x91       C361      -1
    x95       __OBJ___  8
    x95       C190      -1
    x95       C213      -1
    x95       C306      -1
    x97       __OBJ___  140
    x97       C40       -1
    x97       C95       -1
    x97       C219      -1
    x97       C287      -1
    x97       C292      -1
    x97       C348      -1
    x98       __OBJ___  520
    x98       C240      -1
    x98       C247      -1
    x98       C267      -1
    x98       C350      -1
    x99       __OBJ___  429
    x99       C4        -1
    x99       C338      -1
    x99       C352      -1
    x101      __OBJ___  593
    x101      C80       -1
    x101      C194      -1
    x101      C260      -1
    x104      __OBJ___  218
    x104      C76       -1
    x104      C305      -1
    x104      C337      -1
    x105      __OBJ___  397
    x105      C184      -1
    x105      C237      -1
    x105      C311      -1
    x105      C337      -1
    x107      __OBJ___  132
    x107      C277      -1
    x107      C352      -1
    x107      C393      -1
    x111      __OBJ___  718
    x111      C128      -1
    x111      C198      -1
    x111      C346      -1
    x113      __OBJ___  725
    x113      C165      -1
    x113      C220      -1
    x117      __OBJ___  264
    x117      C139      -1
    x117      C213      -1
    x117      C274      -1
    x121      __OBJ___  179
    x121      C170      -1
    x121      C240      -1
    x123      __OBJ___  695
    x123      C50       -1
    x123      C134      -1
    x123      C197      -1
    x123      C294      -1
    x124      __OBJ___  472
    x124      C250      -1
    x124      C272      -1
    x124      C294      -1
    x124      C338      -1
    x124      C350      -1
    x125      __OBJ___  91
    x125      C120      -1
    x125      C294      -1
    x125      C394      -1
    x126      __OBJ___  190
    x126      C47       -1
    x126      C149      -1
    x127      __OBJ___  840
    x127      C61       -1
    x127      C140      -1
    x127      C205      -1
    x127      C382      -1
    x128      __OBJ___  782
    x128      C63       -1
    x128      C69       -1
    x128      C113      -1
    x129      __OBJ___  1000
    x129      C30       -1
    x129      C99       -1
    x129      C263      -1
    x131      __OBJ___  264
    x131      C25       -1
    x131      C276      -1
    x131      C277      -1
    x134      __OBJ___  191
    x134      C2        -1
    x134      C260      -1
    x134      C277      -1
    x134      C371      -1
    x135      __OBJ___  548
    x135      C116      -1
    x135      C349      -1
    x136      __OBJ___  276
    x136      C86       -1
    x136      C279      -1
    x136      C304      -1
    x138      __OBJ___  431
    x138      C292      -1
    x138      C399      -1
    x139      __OBJ___  864
    x139      C167      -1
    x139      C310      -1
    x139      C369      -1
    x140      __OBJ___  976
    x140      C25       -1
    x140      C128      -1
    x140      C185      -1
    x140      C275      -1
    x140      C332      -1
    x141      __OBJ___  167
    x141      C222      -1
    x141      C283      -1
    x141      C323      -1
    x142      __OBJ___  121
    x142      C37       -1
    x145      __OBJ___  249
    x145      C271      -1
    x145      C352      -1
    x145      C395      -1
    x146      __OBJ___  145
    x146      C161      -1
    x147      __OBJ___  503
    x147      C144      -1
    x147      C192      -1
    x147      C267      -1
    x147      C345      -1
    x147      C356      -1
    x149      __OBJ___  126
    x149      C67       -1
    x149      C193      -1
    x149      C357      -1
    x154      __OBJ___  925
    x154      C263      -1
    x154      C287      -1
    x154      C361      -1
    x164      __OBJ___  584
    x164      C108      -1
    x164      C145      -1
    x164      C250      -1
    x165      __OBJ___  3
    x165      C2        -1
    x166      __OBJ___  56
    x166      C270      -1
    x166      C350      -1
    x167      __OBJ___  940
    x167      C36       -1
    x167      C223      -1
    x167      C364      -1
    x169      __OBJ___  781
    x169      C4        -1
    x169      C144      -1
    x169      C360      -1
    x170      __OBJ___  251
    x170      C139      -1
    x170      C242      -1
    x170      C265      -1
    x170      C383      -1
    x171      __OBJ___  61
    x171      C192      -1
    x171      C341      -1
    x174      __OBJ___  303
    x174      C34       -1
    x174      C222      -1
    x175      __OBJ___  752
    x175      C93       -1
    x175      C276      -1
    x175      C336      -1
    x175      C337      -1
    x177      __OBJ___  278
    x177      C62       -1
    x177      C163      -1
    x177      C291      -1
    x177      C310      -1
    x178      __OBJ___  65
    x178      C217      -1
    x178      C382      -1
    x178      C390      -1
    x185      __OBJ___  287
    x185      C119      -1
    x185      C130      -1
    x185      C318      -1
    x185      C364      -1
    x186      __OBJ___  743
    x186      C153      -1
    x186      C193      -1
    x186      C397      -1
    x193      __OBJ___  167
    x193      C184      -1
    x193      C345      -1
    x193      C383      -1
    x195      __OBJ___  335
    x195      C234      -1
    x199      __OBJ___  48
    x199      C50       -1
    x199      C57       -1
    x199      C166      -1
    x199      C203      -1
    x199      C356      -1
    x204      __OBJ___  774
    x204      C140      -1
    x204      C317      -1
    x206      __OBJ___  653
    x206      C50       -1
    x206      C351      -1
    x206      C377      -1
    x206      C394      -1
    x208      __OBJ___  216
    x208      C165      -1
    x208      C302      -1
    x209      __OBJ___  256
    x209      C130      -1
    x209      C153      -1
    x209      C222      -1
    x216      __OBJ___  555
    x216      C140      -1
    x216      C397      -1
    x219      __OBJ___  840
    x219      C7        -1
    x219      C161      -1
    x219      C219      -1
    x219      C230      -1
    x221      __OBJ___  511
    x221      C124      -1
    x221      C211      -1
    x221      C300      -1
    x221      C332      -1
    x221      C351      -1
    x222      __OBJ___  548
    x222      C34       -1
    x222      C52       -1
    x222      C356      -1
    x225      __OBJ___  658
    x225      C12       -1
    x225      C131      -1
    x225      C132      -1
    x225      C185      -1
    x232      __OBJ___  528
    x232      C7        -1
    x232      C211      -1
    x232      C217      -1
    x232      C366      -1
    x233      __OBJ___  277
    x233      C43       -1
    x233      C74       -1
    x233      C230      -1
    x236      __OBJ___  18
    x236      C29       -1
    x236      C75       -1
    x236      C190      -1
    x237      __OBJ___  64
    x237      C96       -1
    x237      C193      -1
    x237      C277      -1
    x238      __OBJ___  264
    x238      C254      -1
    x238      C294      -1
    x241      __OBJ___  562
    x241      C81       -1
    x241      C219      -1
    x241      C324      -1
    x243      __OBJ___  350
    x243      C50       -1
    x243      C399      -1
    x247      __OBJ___  466
    x247      C242      -1
    x247      C338      -1
    x249      __OBJ___  672
    x249      C81       -1
    x249      C138      -1
    x249      C197      -1
    x250      __OBJ___  167
    x250      C113      -1
    x250      C247      -1
    x251      __OBJ___  177
    x251      C5        -1
    x251      C174      -1
    x251      C266      -1
    x251      C304      -1
    x253      __OBJ___  795
    x253      C67       -1
    x253      C234      -1
    x253      C254      -1
    x253      C338      -1
    x257      __OBJ___  685
    x257      C275      -1
    x257      C295      -1
    x257      C304      -1
    x260      __OBJ___  626
    x260      C36       -1
    x260      C65       -1
    x265      __OBJ___  148
    x265      C133      -1
    x265      C347      -1
    x266      __OBJ___  281
    x266      C0        -1
    x266      C96       -1
    x267      __OBJ___  532
    x267      C121      -1
    x267      C125      -1
    x267      C131      -1
    x267      C242      -1
    x267      C274      -1
    x267      C390      -1
    x274      __OBJ___  151
    x274      C37       -1
    x274      C282      -1
    x274      C337      -1
    x274      C348      -1
    x277      __OBJ___  914
    x277      C76       -1
    x277      C184      -1
    x277      C234      -1
    x277      C235      -1
    x278      __OBJ___  119
    x278      C138      -1
    x278      C371      -1
    x280      __OBJ___  109
    x280      C206      -1
    x280      C216      -1
    x280      C354      -1
    x282      __OBJ___  860
    x282      C60       -1
    x282      C62       -1
    x282      C86       -1
    x282      C184      -1
    x282      C305      -1
    x285      __OBJ___  845
    x285      C89       -1
    x285      C121      -1
    x285      C272      -1
    x285      C343      -1
    x285      C371      -1
    x288      __OBJ___  60
    x288      C10       -1
    x288      C62       -1
    x288      C95       -1
    x289      __OBJ___  263
    x289      C213      -1
    x289      C294      -1
    x289      C325      -1
    x289      C357      -1
    x289      C366      -1
    x290      __OBJ___  210
    x290      C71       -1
    x290      C125      -1
    x291      __OBJ___  34
    x291      C69       -1
    x291      C115      -1
    x294      __OBJ___  178
    x294      C237      -1
    x294      C271      -1
    x295      __OBJ___  442
    x295      C130      -1
    x295      C399      -1
    x296      __OBJ___  385
    x296      C126      -1
    x296      C279      -1
    x296      C282      -1
    x296      C325      -1
    x297      __OBJ___  196
    x297      C77       -1
    x297      C156      -1
    x298      __OBJ___  231
    x298      C2        -1
    x298      C165      -1
    x298      C214      -1
    x298      C329      -1
    x298      C363      -1
    x301      __OBJ___  234
    x301      C300      -1
    x301      C324      -1
    x302      __OBJ___  403
    x302      C292      -1
    x302      C305      -1
    x302      C306      -1
    x302      C324      -1
    x305      __OBJ___  964
    x305      C26       -1
    x305      C139      -1
    x305      C395      -1
    x306      __OBJ___  120
    x306      C124      -1
    x306      C346      -1
    x308      __OBJ___  420
    x308      C235      -1
    x308      C247      -1
    x310      __OBJ___  133
    x310      C50       -1
    x310      C71       -1
    x310      C242      -1
    x310      C348      -1
    x311      __OBJ___  97
    x311      C89       -1
    x311      C345      -1
    x313      __OBJ___  194
    x313      C311      -1
    x314      __OBJ___  23
    x314      C44       -1
    x314      C216      -1
    x314      C349      -1
    x314      C356      -1
    x320      __OBJ___  286
    x320      C134      -1
    x320      C148      -1
    x323      __OBJ___  95
    x323      C165      -1
    x323      C348      -1
    x325      __OBJ___  151
    x325      C184      -1
    x325      C250      -1
    x325      C255      -1
    x325      C274      -1
    x325      C366      -1
    x326      __OBJ___  564
    x326      C3        -1
    x326      C86       -1
    x326      C204      -1
    x326      C306      -1
    x329      __OBJ___  425
    x329      C108      -1
    x329      C109      -1
    x331      __OBJ___  128
    x331      C119      -1
    x331      C230      -1
    x331      C242      -1
    x331      C274      -1
    x331      C344      -1
    x335      __OBJ___  220
    x335      C15       -1
    x335      C132      -1
    x335      C167      -1
    x338      __OBJ___  670
    x338      C30       -1
    x338      C102      -1
    x341      __OBJ___  689
    x341      C198      -1
    x343      __OBJ___  881
    x343      C40       -1
    x343      C244      -1
    x344      __OBJ___  7
    x344      C29       -1
    x348      __OBJ___  956
    x348      C151      -1
    x348      C213      -1
    x348      C254      -1
    x348      C317      -1
    x352      __OBJ___  275
    x352      C57       -1
    x352      C153      -1
    x353      __OBJ___  97
    x353      C203      -1
    x353      C220      -1
    x354      __OBJ___  334
    x354      C255      -1
    x354      C298      -1
    x355      __OBJ___  83
    x355      C9        -1
    x355      C167      -1
    x355      C279      -1
    x355      C352      -1
    x355      C363      -1
    x356      __OBJ___  154
    x356      C113      -1
    x356      C115      -1
    x356      C164      -1
    x356      C306      -1
    x357      __OBJ___  336
    x357      C305      -1
    x357      C308      -1
    x357      C349      -1
    x360      __OBJ___  572
    x360      C10       -1
    x360      C47       -1
    x360      C205      -1
    x360      C345      -1
    x362      __OBJ___  162
    x362      C73       -1
    x362      C170      -1
    x362      C204      -1
    x362      C292      -1
    x363      __OBJ___  41
    x363      C165      -1
    x363      C291      -1
    x364      __OBJ___  445
    x364      C15       -1
    x364      C312      -1
    x364      C340      -1
    x364      C346      -1
    x370      __OBJ___  213
    x370      C119      -1
    x370      C145      -1
    x370      C165      -1
    x370      C357      -1
    x370      C387      -1
    x371      __OBJ___  695
    x371      C47       -1
    x371      C223      -1
    x371      C292      -1
    x375      __OBJ___  392
    x375      C122      -1
    x375      C305      -1
    x375      C345      -1
    x379      __OBJ___  139
    x379      C164      -1
    x379      C352      -1
    x380      __OBJ___  670
    x380      C312      -1
    x380      C343      -1
    x383      __OBJ___  68
    x383      C80       -1
    x383      C94       -1
    x383      C222      -1
    x383      C270      -1
    x386      __OBJ___  153
    x386      C3        -1
    x386      C95       -1
    x388      __OBJ___  294
    x388      C64       -1
    x388      C287      -1
    x390      __OBJ___  158
    x390      C149      -1
    x390      C314      -1
    x394      __OBJ___  378
    x394      C108      -1
    x394      C242      -1
    x395      __OBJ___  506
    x395      C207      -1
    x395      C294      -1
    x395      C314      -1
    x395      C336      -1
    x398      __OBJ___  219
    x398      C12       -1
    x398      C126      -1
    x398      C207      -1
    MARKER    'MARKER'                 'INTEND'
RHS
    RHS       __OBJ___  -16219
    RHS       C0        -1
    RHS       C2        -1
    RHS       C3        -1
    RHS       C4        -1
    RHS       C5        -1
    RHS       C7        -1
    RHS       C9        -1
    RHS       C10       -1
    RHS       C12       -1
    RHS       C15       -1
    RHS       C25       -1
    RHS       C26       -1
    RHS       C29       -1
    RHS       C30       -1
    RHS       C34       -1
    RHS       C36       -1
    RHS       C37       -1
    RHS       C40       -1
    RHS       C43       -1
    RHS       C44       -1
    RHS       C47       -1
    RHS       C50       -1
    RHS       C52       -1
    RHS       C57       -1
    RHS       C60       -1
    RHS       C61       -1
    RHS       C62       -1
    RHS       C63       -1
    RHS       C64       -1
    RHS       C65       -1
    RHS       C67       -1
    RHS       C69       -1
    RHS       C71       -1
    RHS       C73       -1
    RHS       C74       -1
    RHS       C75       -1
    RHS       C76       -1
    RHS       C77       -1
    RHS       C80       -1
    RHS       C81       -1
    RHS       C86       -1
    RHS       C89       -1
    RHS       C93       -1
    RHS       C94       -1
    RHS       C95       -1
    RHS       C96       -1
    RHS       C99       -1
    RHS       C102      -1
    RHS       C108      -1
    RHS       C109      -1
    RHS       C113      -1
    RHS       C115      -1
    RHS       C116      -1
    RHS       C119      -1
    RHS       C120      -1
    RHS       C121      -1
    RHS       C122      -1
    RHS       C124      -1
    RHS       C125      -1
    RHS       C126      -1
    RHS       C128      -1
    RHS       C130      -1
    RHS       C131      -1
    RHS       C132      -1
    RHS       C133      -1
    RHS       C134      -1
    RHS       C138      -1
    RHS       C139      -1
    RHS       C140      -1
    RHS       C144      -1
    RHS       C145      -1
    RHS       C148      -1
    RHS       C149      -1
    RHS       C151      -1
    RHS       C153      -1
    RHS       C156      -1
    RHS       C161      -1
    RHS       C163      -1
    RHS       C164      -1
    RHS       C165      -1
    RHS       C166      -1
    RHS       C167      -1
    RHS       C170      -1
    RHS       C174      -1
    RHS       C184      -1
    RHS       C185      -1
    RHS       C190      -1
    RHS       C192      -1
    RHS       C193      -1
    RHS       C194      -1
    RHS       C197      -1
    RHS       C198      -1
    RHS       C203      -1
    RHS       C204      -1
    RHS       C205      -1
    RHS       C206      -1
    RHS       C207      -1
    RHS       C211      -1
    RHS       C213      -1
    RHS       C214      -1
    RHS       C216      -1
    RHS       C217      -1
    RHS       C219      -1
    RHS       C220      -2
    RHS       C222      -1
    RHS       C223      -1
    RHS       C230      -1
    RHS       C234      -1
    RHS       C235      -1
    RHS       C237      -1
    RHS       C240      -1
    RHS       C242      -1
    RHS       C244      -1
    RHS       C247      -1
    RHS       C250      -1
    RHS       C254      -1
    RHS       C255      -1
    RHS       C260      -1
    RHS       C263      -1
    RHS       C265      -1
    RHS       C266      -1
    RHS       C267      -1
    RHS       C270      -1
    RHS       C271      -1
    RHS       C272      -1
    RHS       C274      -1
    RHS       C275      -1
    RHS       C276      -1
    RHS       C277      -1
    RHS       C279      -1
    RHS       C282      -1
    RHS       C283      -1
    RHS       C287      -1
    RHS       C291      -1
    RHS       C292      -1
    RHS       C294      -1
    RHS       C295      -1
    RHS       C298      -1
    RHS       C300      -1
    RHS       C302      -1
    RHS       C304      -1
    RHS       C305      -1
    RHS       C306      -1
    RHS       C308      -1
    RHS       C310      -1
    RHS       C311      -1
    RHS       C312      -1
    RHS       C314      -1
    RHS       C317      -1
    RHS       C318      -1
    RHS       C323      -1
    RHS       C324      -1
    RHS       C325      -1
    RHS       C329      -1
    RHS       C332      -1
    RHS       C336      -1
    RHS       C337      -1
    RHS       C338      -1
    RHS       C340      -1
    RHS       C341      -1
    RHS       C343      -1
    RHS       C344      -1
    RHS       C345      -1
    RHS       C346      -1
    RHS       C347      -1
    RHS       C348      -1
    RHS       C349      -1
    RHS       C350      -1
    RHS       C351      -1
    RHS       C352      -1
    RHS       C354      -1
    RHS       C356      -1
    RHS       C357      -1
    RHS       C360      -1
    RHS       C361      -1
    RHS       C363      -1
    RHS       C364      -1
    RHS       C366      -1
    RHS       C369      -1
    RHS       C371      -1
    RHS       C377      -1
    RHS       C382      -1
    RHS       C383      -1
    RHS       C387      -1
    RHS       C390      -1
    RHS       C393      -1
    RHS       C394      -1
    RHS       C395      -1
    RHS       C397      -1
    RHS       C399      -1
BOUNDS
 UP BOUND     x4        1
 UP BOUND     x7        1
 UP BOUND     x9        1
 UP BOUND     x11       1
 UP BOUND     x12       1
 UP BOUND     x16       1
 UP BOUND     x17       1
 UP BOUND     x18       1
 UP BOUND     x24       1
 UP BOUND     x26       1
 UP BOUND     x28       1
 UP BOUND     x29       1
 UP BOUND     x30       1
 UP BOUND     x33       1
 UP BOUND     x35       1
 UP BOUND     x37       1
 UP BOUND     x39       1
 UP BOUND     x41       1
 UP BOUND     x43       1
 UP BOUND     x44       1
 UP BOUND     x45       1
 UP BOUND     x51       1
 UP BOUND     x52       1
 UP BOUND     x55       1
 UP BOUND     x56       1
 UP BOUND     x57       1
 UP BOUND     x59       1
 UP BOUND     x60       1
 UP BOUND     x67       1
 UP BOUND     x69       1
 UP BOUND     x71       1
 UP BOUND     x72       1
 UP BOUND     x74       1
 UP BOUND     x75       1
 UP BOUND     x78       1
 UP BOUND     x79       1
 UP BOUND     x80       1
 UP BOUND     x82       1
 UP BOUND     x83       1
 UP BOUND     x86       1
 UP BOUND     x91       1
 UP BOUND     x95       1
 UP BOUND     x97       1
 UP BOUND     x98       1
 UP BOUND     x99       1
 UP BOUND     x101      1
 UP BOUND     x104      1
 UP BOUND     x105      1
 UP BOUND     x107      1
 UP BOUND     x111      1
 UP BOUND     x113      1
 UP BOUND     x117      1
 UP BOUND     x121      1
 UP BOUND     x123      1
 UP BOUND     x124      1
 UP BOUND     x125      1
 UP BOUND     x126      1
 UP BOUND     x127      1
 UP BOUND     x128      1
 UP BOUND     x129      1
 UP BOUND     x131      1
 UP BOUND     x134      1
 UP BOUND     x135      1
 UP BOUND     x136      1
 UP BOUND     x138      1
 UP BOUND     x139      1
 UP BOUND     x140      1
 UP BOUND     x141      1
 UP BOUND     x142      1
 UP BOUND     x145      1
 UP BOUND     x146      1
 UP BOUND     x147      1
 UP BOUND     x149      1
 UP BOUND     x154      1
 UP BOUND     x164      1
 UP BOUND     x165      1
 UP BOUND     x166      1
 UP BOUND     x167      1
 UP BOUND     x169      1
 UP BOUND     x170      1
 UP BOUND     x171      1
 UP BOUND     x174      1
 UP BOUND     x175      1
 UP BOUND     x177      1
 UP BOUND     x178      1
 UP BOUND     x185      1
 UP BOUND     x186      1
 UP BOUND     x193      1
 UP BOUND     x195      1
 UP BOUND     x199      1
 UP BOUND     x204      1
 UP BOUND     x206      1
 UP BOUND     x208      1
 UP BOUND     x209      1
 UP BOUND     x216      1
 UP BOUND     x219      1
 UP BOUND     x221      1
 UP BOUND     x222      1
 UP BOUND     x225      1
 UP BOUND     x232      1
 UP BOUND     x233      1
 UP BOUND     x236      1
 UP BOUND     x237      1
 UP BOUND     x238      1
 UP BOUND     x241      1
 UP BOUND     x243      1
 UP BOUND     x247      1
 UP BOUND     x249      1
 UP BOUND     x250      1
 UP BOUND     x251      1
 UP BOUND     x253      1
 UP BOUND     x257      1
 UP BOUND     x260      1
 UP BOUND     x265      1
 UP BOUND     x266      1
 UP BOUND     x267      1
 UP BOUND     x274      1
 UP BOUND     x277      1
 UP BOUND     x278      1
 UP BOUND     x280      1
 UP BOUND     x282      1
 UP BOUND     x285      1
 UP BOUND     x288      1
 UP BOUND     x289      1
 UP BOUND     x290      1
 UP BOUND     x291      1
 UP BOUND     x294      1
 UP BOUND     x295      1
 UP BOUND     x296      1
 UP BOUND     x297      1
 UP BOUND     x298      1
 UP BOUND     x301      1
 UP BOUND     x302      1
 UP BOUND     x305      1
 UP BOUND     x306      1
 UP BOUND     x308      1
 UP BOUND     x310      1
 UP BOUND     x311      1
 UP BOUND     x313      1
 UP BOUND     x314      1
 UP BOUND     x320      1
 UP BOUND     x323      1
 UP BOUND     x325      1
 UP BOUND     x326      1
 UP BOUND     x329      1
 UP BOUND     x331      1
 UP BOUND     x335      1
 UP BOUND     x338      1
 UP BOUND     x341      1
 UP BOUND     x343      1
 UP BOUND     x344      1
 UP BOUND     x348      1
 UP BOUND     x352      1
 UP BOUND     x353      1
 UP BOUND     x354      1
 UP BOUND     x355      1
 UP BOUND     x356      1
 UP BOUND     x357      1
 UP BOUND     x360      1
 UP BOUND     x362      1
 UP BOUND     x363      1
 UP BOUND     x364      1
 UP BOUND     x370      1
 UP BOUND     x371      1
 UP BOUND     x375      1
 UP BOUND     x379      1
 UP BOUND     x380      1
 UP BOUND     x383      1
 UP BOUND     x386      1
 UP BOUND     x388      1
 UP BOUND     x390      1
 UP BOUND     x394      1
 UP BOUND     x395      1
 UP BOUND     x398      1
ENDATA
